
n_res = 6;
rcap = [80, 77, 73, 83, 807, 827];
rtype = [1, 1, 1, 1, 2, 2];
n_tasks = 50;
modes =  [{1, 2, 3}, {4, 5, 6}, {7, 8, 9}, {10, 11, 12}, {13, 14, 15}, {16, 17, 18}, {19, 20, 21}, {22, 23, 24}, {25, 26, 27}, {28, 29, 30}, {31, 32, 33}, {34, 35, 36}, {37, 38, 39}, {40, 41, 42}, {43, 44, 45}, {46, 47, 48}, {49, 50, 51}, {52, 53, 54}, {55, 56, 57}, {58, 59, 60}, {61, 62, 63}, {64, 65, 66}, {67, 68, 69}, {70, 71, 72}, {73, 74, 75}, {76, 77, 78}, {79, 80, 81}, {82, 83, 84}, {85, 86, 87}, {88, 89, 90}, {91, 92, 93}, {94, 95, 96}, {97, 98, 99}, {100, 101, 102}, {103, 104, 105}, {106, 107, 108}, {109, 110, 111}, {112, 113, 114}, {115, 116, 117}, {118, 119, 120}, {121, 122, 123}, {124, 125, 126}, {127, 128, 129}, {130, 131, 132}, {133, 134, 135}, {136, 137, 138}, {139, 140, 141}, {142, 143, 144}, {145, 146, 147}, {148, 149, 150}];
succ =  [{29, 18, 17, 16, 10, 9}, {25, 24, 23, 20, 17, 16, 10}, {20, 10, 8}, {31, 30, 29, 25, 24, 23, 22, 21, 19, 17}, {24, 18, 8}, {22, 18, 17, 10}, {36, 8}, {31, 30, 29, 26, 23, 19, 16}, {50, 30, 25, 24, 21, 20, 19}, {50, 49, 31, 30, 27, 26, 21, 19}, {50, 27, 24, 20, 18}, {50, 49, 39, 35, 31, 30, 29, 27, 21}, {50, 32, 31, 26, 24, 19}, {50, 49, 36, 35, 33, 32, 28, 26}, {50, 38, 32, 28, 24}, {50, 49, 48, 39, 35, 34, 27}, {40, 35, 32, 28, 27}, {33, 32, 31, 30, 28}, {40, 35, 34, 33, 28}, {47, 39, 38, 36, 35, 34, 31}, {48, 47, 46, 40, 37, 36, 32}, {48, 47, 46, 33, 32}, {50, 49, 48, 42, 40, 37, 32}, {49, 48, 47, 45, 40, 37, 36}, {49, 48, 46, 44, 41, 39, 34}, {46, 45, 44, 43, 40, 39, 38}, {47, 46, 45, 44, 33}, {47, 46, 44, 43, 41, 39}, {48, 44, 43, 38, 37}, {48, 47, 45, 42, 41}, {44, 43, 42, 37}, {44, 34}, {38, 37}, {45, 43}, {46, 41}, {43, 42}, {41}, {42}, {42}, {41}, {}, {}, {}, {}, {}, {}, {}, {}, {}, {}];
n_opt = 150;
dur = [4, 20, 27, 19, 25, 26, 8, 13, 16, 4, 13, 17, 11, 19, 29, 3, 22, 28, 1, 2, 25, 6, 14, 16, 15, 28, 29, 4, 22, 24, 2, 4, 24, 12, 28, 30, 8, 22, 23, 10, 13, 21, 4, 19, 20, 17, 22, 23, 11, 13, 30, 6, 26, 29, 3, 11, 20, 1, 2, 3, 11, 12, 20, 2, 7, 16, 15, 17, 29, 9, 19, 24, 18, 19, 29, 1, 3, 7, 2, 5, 16, 10, 17, 21, 11, 12, 24, 3, 7, 8, 2, 12, 15, 15, 24, 27, 1, 8, 13, 7, 11, 30, 7, 15, 23, 6, 13, 17, 2, 18, 19, 15, 18, 23, 6, 13, 17, 19, 23, 24, 2, 27, 30, 1, 13, 16, 16, 18, 23, 24, 27, 30, 1, 24, 25, 4, 11, 21, 6, 17, 26, 3, 4, 24, 12, 13, 22, 6, 13, 20];
rreq = [|27, 26, 25, 16, 11, 6, 20, 19, 16, 26, 24, 23, 19, 19, 11, 19, 13, 7, 20, 16, 12, 2, 1, 1, 21, 13, 9, 23, 14, 11, 7, 6, 3, 22, 19, 8, 3, 2, 1, 24, 21, 21, 28, 18, 16, 11, 10, 5, 18, 18, 12, 21, 14, 11, 14, 12, 11, 22, 20, 16, 17, 10, 7, 15, 11, 10, 11, 7, 5, 15, 11, 10, 22, 20, 20, 2, 2, 1, 29, 29, 29, 18, 12, 9, 23, 23, 21, 26, 24, 23, 14, 7, 7, 26, 19, 11, 23, 19, 19, 10, 8, 8, 10, 8, 4, 11, 10, 9, 17, 15, 14, 14, 14, 14, 30, 29, 27, 18, 18, 16, 23, 16, 15, 13, 9, 6, 20, 15, 14, 28, 24, 22, 14, 11, 11, 27, 27, 23, 18, 17, 14, 22, 20, 18, 24, 11, 3, 27, 22, 15
 |10, 9, 7, 9, 6, 4, 13, 8, 4, 26, 26, 24, 7, 5, 5, 23, 23, 23, 22, 20, 19, 27, 26, 25, 22, 21, 20, 13, 12, 11, 23, 16, 13, 8, 7, 7, 19, 16, 14, 24, 17, 10, 25, 23, 20, 16, 12, 11, 17, 11, 10, 14, 11, 10, 13, 8, 6, 27, 15, 10, 27, 25, 25, 11, 11, 11, 20, 18, 18, 18, 14, 9, 30, 19, 14, 7, 7, 4, 13, 9, 5, 22, 19, 17, 21, 21, 20, 12, 9, 7, 17, 16, 16, 18, 10, 9, 28, 26, 25, 23, 19, 16, 19, 16, 10, 22, 19, 19, 20, 12, 9, 25, 18, 5, 21, 21, 18, 26, 22, 19, 17, 16, 10, 21, 20, 18, 4, 3, 3, 23, 21, 20, 26, 22, 19, 20, 16, 10, 23, 22, 16, 25, 15, 3, 19, 15, 2, 3, 3, 1
 |28, 26, 25, 7, 7, 5, 13, 11, 11, 7, 6, 2, 11, 9, 9, 6, 4, 3, 29, 18, 14, 17, 14, 13, 22, 21, 21, 6, 6, 6, 21, 20, 11, 19, 15, 13, 21, 14, 8, 28, 26, 22, 17, 17, 17, 18, 15, 13, 18, 15, 10, 23, 22, 22, 13, 11, 10, 20, 16, 13, 20, 9, 6, 24, 21, 21, 19, 17, 17, 16, 13, 8, 13, 9, 7, 28, 23, 17, 25, 10, 6, 18, 16, 15, 21, 16, 13, 7, 5, 3, 12, 12, 10, 13, 13, 11, 21, 19, 18, 14, 10, 6, 28, 24, 22, 22, 20, 13, 17, 15, 14, 29, 24, 22, 26, 25, 25, 1, 1, 1, 10, 6, 2, 25, 24, 24, 3, 2, 1, 26, 14, 14, 7, 4, 2, 23, 19, 15, 15, 14, 13, 24, 15, 3, 13, 12, 12, 6, 6, 6
 |26, 22, 18, 15, 10, 6, 20, 17, 10, 27, 16, 10, 20, 16, 8, 23, 23, 14, 23, 16, 14, 12, 8, 4, 7, 7, 7, 22, 14, 9, 26, 18, 11, 26, 26, 25, 10, 7, 6, 28, 27, 23, 6, 5, 5, 16, 9, 5, 27, 24, 21, 20, 18, 18, 13, 10, 9, 13, 6, 4, 7, 6, 4, 16, 12, 10, 17, 17, 17, 4, 3, 3, 23, 18, 14, 12, 12, 12, 8, 8, 7, 4, 2, 1, 10, 8, 5, 17, 14, 11, 25, 13, 5, 13, 7, 4, 18, 18, 18, 11, 9, 6, 25, 23, 23, 26, 18, 14, 25, 21, 16, 25, 24, 24, 18, 15, 12, 26, 23, 22, 26, 21, 20, 24, 22, 22, 28, 26, 25, 7, 5, 5, 24, 21, 20, 20, 19, 18, 11, 10, 10, 28, 27, 27, 13, 13, 11, 5, 4, 2
 |26, 25, 25, 19, 15, 8, 30, 25, 23, 12, 8, 6, 19, 17, 15, 13, 11, 5, 29, 20, 19, 24, 23, 23, 23, 23, 17, 24, 24, 23, 19, 15, 13, 25, 21, 17, 10, 9, 9, 26, 20, 10, 24, 23, 21, 21, 19, 14, 12, 12, 9, 18, 17, 17, 23, 12, 12, 16, 16, 15, 5, 5, 5, 16, 13, 11, 20, 16, 11, 29, 29, 27, 19, 15, 11, 13, 8, 7, 20, 16, 7, 30, 20, 11, 11, 11, 7, 25, 14, 9, 16, 15, 5, 24, 22, 21, 17, 11, 7, 22, 16, 12, 15, 11, 7, 25, 14, 5, 29, 20, 6, 9, 8, 8, 29, 26, 19, 22, 19, 17, 24, 17, 16, 17, 12, 8, 13, 13, 12, 23, 13, 11, 17, 16, 15, 22, 22, 22, 11, 10, 10, 13, 12, 9, 6, 6, 5, 27, 20, 10
 |14, 10, 8, 28, 28, 25, 19, 16, 14, 26, 26, 26, 16, 16, 15, 21, 12, 8, 24, 17, 12, 26, 24, 20, 24, 22, 21, 23, 15, 7, 28, 19, 12, 3, 3, 3, 24, 17, 12, 20, 12, 8, 26, 18, 6, 28, 25, 25, 28, 18, 13, 15, 12, 11, 9, 6, 5, 14, 12, 8, 29, 23, 20, 23, 19, 14, 21, 15, 15, 13, 10, 6, 22, 21, 19, 24, 23, 21, 19, 10, 4, 15, 13, 8, 26, 26, 26, 20, 13, 5, 29, 26, 24, 17, 16, 15, 18, 13, 7, 23, 17, 3, 16, 16, 8, 21, 21, 21, 22, 13, 9, 25, 18, 6, 14, 13, 8, 24, 15, 13, 30, 29, 28, 15, 13, 13, 26, 22, 12, 11, 10, 5, 19, 14, 10, 23, 20, 19, 18, 16, 7, 20, 17, 10, 28, 15, 8, 3, 2, 2|];